32      4       
10      14      23      11      
0       0       0       0       0       3       2       3       4       
4       0       9       0       0       1       30      
5       6       0       0       0       3       5       7       11      
6       0       0       4       0       2       12      15      
3       0       0       10      0       3       6       8       17      
3       0       8       0       0       1       27      
3       0       0       0       8       2       10      29      
5       3       0       0       0       3       9       13      23      
7       0       0       0       2       1       19      
1       0       6       0       0       1       25      
10      2       0       0       0       1       20      
1       0       0       7       0       2       17      24      
8       0       0       6       0       2       14      24      
7       0       0       6       0       2       16      18      
9       0       0       6       0       1       21      
8       0       0       10      0       1       27      
7       5       0       0       0       2       22      27      
6       0       4       0       0       2       20      31      
1       6       0       0       0       1       26      
3       0       5       0       0       2       21      28      
10      9       0       0       0       2       22      26      
5       0       0       0       1       1       29      
10      0       6       0       0       1       26      
8       0       0       8       0       1       25      
1       0       0       0       5       1       31      
4       0       0       0       7       1       30      
5       0       6       0       0       1       28      
2       0       9       0       0       1       29      
8       5       0       0       0       1       32      
7       0       0       0       10      1       32      
8       0       0       0       3       1       32      
0       0       0       0       0       0       